p cnf 127 393
c t mc
5 -3 0
5 -4 0
3 4 -5 0
-6 -2 0
-6 -5 0
2 5 6 0
9 -7 0
9 -8 0
7 8 -9 0
-10 6 0
-10 9 0
-6 -9 10 0
-11 1 0
-11 10 0
-1 -10 11 0
-15 13 0
-15 -14 0
-13 14 15 0
-12 -15 -16 0
12 15 -16 0
-12 15 16 0
12 -15 16 0
14 -8 -17 0
-14 8 -17 0
14 8 17 0
-14 -8 17 0
16 17 -18 0
-16 -17 -18 0
16 -17 18 0
-16 17 18 0
20 -19 0
20 3 0
19 -3 -20 0
-21 -16 0
-21 20 0
16 -20 21 0
-23 -21 0
-23 -22 0
21 22 23 0
-25 -5 0
-25 -24 0
5 24 25 0
26 16 0
26 25 0
-16 -25 -26 0
-27 -28 -29 0
27 28 -29 0
-27 28 29 0
27 -28 29 0
30 -22 0
30 -29 0
22 29 -30 0
-31 30 0
-31 -26 0
-30 26 31 0
32 26 0
32 -31 0
-26 31 -32 0
-33 25 0
-33 19 0
-25 -19 33 0
32 -33 -34 0
-32 33 -34 0
32 33 34 0
-32 -33 34 0
-23 -34 -35 0
23 34 -35 0
-23 34 35 0
23 -34 35 0
18 -35 -36 0
-18 35 -36 0
18 35 36 0
-18 -35 36 0
-11 -36 -37 0
11 36 -37 0
-11 36 37 0
11 -36 37 0
38 -8 -39 0
-38 8 -39 0
38 8 39 0
-38 -8 39 0
40 -12 0
40 39 0
12 -39 -40 0
40 -19 -41 0
-40 19 -41 0
40 19 41 0
-40 -19 41 0
-42 30 0
-42 5 0
-30 -5 42 0
-42 1 -43 0
42 -1 -43 0
-42 -1 43 0
42 1 43 0
-45 -38 0
-45 -44 0
38 44 45 0
46 45 0
46 5 0
-45 -5 -46 0
-43 -46 -47 0
43 46 -47 0
-43 46 47 0
43 -46 47 0
38 1 -48 0
-38 -1 -48 0
38 -1 48 0
-38 1 48 0
49 -47 0
49 48 0
47 -48 -49 0
-50 41 0
-50 49 0
-41 -49 50 0
-21 -9 -51 0
21 9 -51 0
-21 9 51 0
21 -9 51 0
52 7 0
52 -51 0
-7 51 -52 0
53 22 0
53 19 0
-22 -19 -53 0
-53 -54 -55 0
53 54 -55 0
-53 54 55 0
53 -54 55 0
-56 52 0
-56 -55 0
-52 55 56 0
57 50 0
57 56 0
-50 -56 -57 0
-59 -58 0
-59 -24 0
58 24 59 0
33 -5 -60 0
-33 5 -60 0
33 5 60 0
-33 -5 60 0
61 -59 0
61 60 0
59 -60 -61 0
-62 -25 0
-62 5 0
25 -5 62 0
-63 -61 0
-63 62 0
61 -62 63 0
64 -30 0
64 -25 0
30 25 -64 0
-65 24 0
-65 -62 0
-24 62 65 0
19 40 -66 0
-19 -40 -66 0
19 -40 66 0
-19 40 66 0
67 24 0
67 7 0
-24 -7 -67 0
28 -67 -68 0
-28 67 -68 0
28 67 68 0
-28 -67 68 0
40 68 -69 0
-40 -68 -69 0
40 -68 69 0
-40 68 69 0
66 -69 -70 0
-66 69 -70 0
66 69 70 0
-66 -69 70 0
-71 -65 0
-71 70 0
65 -70 71 0
-72 64 0
-72 -71 0
-64 71 72 0
73 -63 0
73 72 0
63 -72 -73 0
-74 7 0
-74 22 0
-7 -22 74 0
-76 38 0
-76 -75 0
-38 75 76 0
74 -76 -77 0
-74 76 -77 0
74 76 77 0
-74 -76 77 0
10 45 -78 0
-10 -45 -78 0
10 -45 78 0
-10 45 78 0
-79 77 0
-79 78 0
-77 -78 79 0
-80 73 0
-80 -79 0
-73 79 80 0
-67 -28 -81 0
67 28 -81 0
-67 28 81 0
67 -28 81 0
82 -17 0
82 81 0
17 -81 -82 0
26 14 -83 0
-26 -14 -83 0
26 -14 83 0
-26 14 83 0
84 -82 0
84 -83 0
82 83 -84 0
83 59 -85 0
-83 -59 -85 0
83 -59 85 0
-83 59 85 0
29 -85 -86 0
-29 85 -86 0
29 85 86 0
-29 -85 86 0
-12 -86 -87 0
12 86 -87 0
-12 86 87 0
12 -86 87 0
60 21 -88 0
-60 -21 -88 0
60 -21 88 0
-60 21 88 0
-88 -58 -89 0
88 58 -89 0
-88 58 89 0
88 -58 89 0
90 -61 0
90 89 0
61 -89 -90 0
-91 -87 0
-91 -90 0
87 90 91 0
-92 -84 0
-92 -91 0
84 91 92 0
93 22 0
93 -54 0
-22 54 -93 0
-94 -68 0
-94 8 0
68 -8 94 0
-93 94 -95 0
93 -94 -95 0
-93 -94 95 0
93 94 95 0
96 92 0
96 -95 0
-92 95 -96 0
97 80 0
97 -96 0
-80 96 -97 0
-67 -24 -98 0
67 24 -98 0
-67 24 98 0
67 -24 98 0
-99 -17 0
-99 -98 0
17 98 99 0
-100 99 0
-100 4 0
-99 -4 100 0
-102 -20 0
-102 101 0
20 -101 102 0
-103 8 0
-103 -17 0
-8 17 103 0
-102 103 -104 0
102 -103 -104 0
-102 -103 104 0
102 103 104 0
105 100 0
105 104 0
-100 -104 -105 0
106 97 0
106 105 0
-97 -105 -106 0
-107 -57 0
-107 -106 0
57 106 107 0
-108 37 0
-108 107 0
-37 -107 108 0
-109 -1 0
-109 -7 0
1 7 109 0
110 -51 0
110 9 0
51 -9 -110 0
-111 -1 0
-111 30 0
1 -30 111 0
-112 110 0
-112 -111 0
-110 111 112 0
-113 59 0
-113 83 0
-59 -83 113 0
114 19 0
114 -54 0
-19 54 -114 0
45 114 -115 0
-45 -114 -115 0
45 -114 115 0
-45 114 115 0
-116 -44 0
-116 -115 0
44 115 116 0
-117 -46 0
-117 25 0
46 -25 117 0
117 13 -118 0
-117 -13 -118 0
117 -13 118 0
-117 13 118 0
-45 44 -119 0
45 -44 -119 0
-45 -44 119 0
45 44 119 0
-120 -118 0
-120 -119 0
118 119 120 0
121 -2 0
121 -89 0
2 89 -121 0
122 120 0
122 121 0
-120 -121 -122 0
-123 116 0
-123 122 0
-116 -122 123 0
124 113 0
124 -123 0
-113 123 -124 0
125 112 0
125 124 0
-112 -124 -125 0
-126 109 0
-126 125 0
-109 -125 126 0
127 -108 0
127 126 0
108 -126 -127 0
15 -23 125 -18 -89 100 20 -104 0
-48 -117 118 5 56 -33 78 89 0
-95 85 126 106 24 -2 0
-55 1 -18 69 10 0
100 -42 112 44 -12 -5 -56 -91 0
38 78 -65 0
97 93 -125 20 -2 -14 0
-95 -39 118 -67 72 -31 -50 65 0
-39 55 4 -49 -118 0
-47 35 -106 -54 0
-116 -118 -56 53 88 87 -115 0
-38 -75 64 78 42 17 -66 -35 0
43 -49 -5 -84 64 -1 -10 96 0
-66 9 -89 98 -50 -33 -116 126 -23 0
109 -117 99 35 73 0
46 41 -25 59 -12 -63 86 -68 98 0
106 85 -35 -26 0
106 -36 115 0
-59 44 63 -64 -26 -101 119 0
-42 -30 77 43 90 98 67 100 -122 0
-100 89 -75 84 88 -16 0
-34 -23 -95 -62 94 -55 105 0
23 -83 120 -76 0
-35 -71 83 -9 58 0
124 18 14 -40 -106 0
-26 105 -73 -33 -30 0
124 -9 -77 34 -5 -40 -3 0
-71 -35 -8 0
29 40 -127 0
90 21 -88 12 9 0
60 21 -69 0
-67 -59 90 124 -87 -50 -76 112 0
3 -7 13 125 53 0
81 -70 -47 15 0
-44 -13 46 -21 97 71 27 0
-85 4 51 0
127 0
